c Generated by SAT Solver
p cnf 8002 768
101 102 0
201 202 0
301 302 0
401 402 0
501 502 0
601 602 0
701 702 0
801 802 0
901 902 0
1001 1002 0
1101 1102 0
1201 1202 0
1301 1302 0
1401 1402 0
1501 1502 0
1601 1602 0
1701 1702 0
1801 1802 0
1901 1902 0
2001 2002 0
2101 2102 0
2201 2202 0
2301 2302 0
2401 2402 0
2501 2502 0
2601 2602 0
2701 2702 0
2801 2802 0
2901 2902 0
3001 3002 0
3101 3102 0
3201 3202 0
3301 3302 0
3401 3402 0
3501 3502 0
3601 3602 0
3701 3702 0
3801 3802 0
3901 3902 0
4001 4002 0
4101 4102 0
4201 4202 0
4301 4302 0
4401 4402 0
4501 4502 0
4601 4602 0
4701 4702 0
4801 4802 0
4901 4902 0
5001 5002 0
5101 5102 0
5201 5202 0
5301 5302 0
5401 5402 0
5501 5502 0
5601 5602 0
5701 5702 0
5801 5802 0
5901 5902 0
6001 6002 0
6101 6102 0
6201 6202 0
6301 6302 0
6401 6402 0
6501 6502 0
6601 6602 0
6701 6702 0
6801 6802 0
6901 6902 0
7001 7002 0
7101 7102 0
7201 7202 0
7301 7302 0
7401 7402 0
7501 7502 0
7601 7602 0
7701 7702 0
7801 7802 0
7901 7902 0
8001 8002 0
-101 -102 0
-201 -202 0
-301 -302 0
-401 -402 0
-501 -502 0
-601 -602 0
-701 -702 0
-801 -802 0
-901 -902 0
-1001 -1002 0
-1101 -1102 0
-1201 -1202 0
-1301 -1302 0
-1401 -1402 0
-1501 -1502 0
-1601 -1602 0
-1701 -1702 0
-1801 -1802 0
-1901 -1902 0
-2001 -2002 0
-2101 -2102 0
-2201 -2202 0
-2301 -2302 0
-2401 -2402 0
-2501 -2502 0
-2601 -2602 0
-2701 -2702 0
-2801 -2802 0
-2901 -2902 0
-3001 -3002 0
-3101 -3102 0
-3201 -3202 0
-3301 -3302 0
-3401 -3402 0
-3501 -3502 0
-3601 -3602 0
-3701 -3702 0
-3801 -3802 0
-3901 -3902 0
-4001 -4002 0
-4101 -4102 0
-4201 -4202 0
-4301 -4302 0
-4401 -4402 0
-4501 -4502 0
-4601 -4602 0
-4701 -4702 0
-4801 -4802 0
-4901 -4902 0
-5001 -5002 0
-5101 -5102 0
-5201 -5202 0
-5301 -5302 0
-5401 -5402 0
-5501 -5502 0
-5601 -5602 0
-5701 -5702 0
-5801 -5802 0
-5901 -5902 0
-6001 -6002 0
-6101 -6102 0
-6201 -6202 0
-6301 -6302 0
-6401 -6402 0
-6501 -6502 0
-6601 -6602 0
-6701 -6702 0
-6801 -6802 0
-6901 -6902 0
-7001 -7002 0
-7101 -7102 0
-7201 -7202 0
-7301 -7302 0
-7401 -7402 0
-7501 -7502 0
-7601 -7602 0
-7701 -7702 0
-7801 -7802 0
-7901 -7902 0
-8001 -8002 0
-101 -4401 0
-102 -4402 0
-101 -5401 0
-102 -5402 0
-101 -6601 0
-102 -6602 0
-101 -6901 0
-102 -6902 0
-101 -7001 0
-102 -7002 0
-201 -901 0
-202 -902 0
-201 -3001 0
-202 -3002 0
-201 -3201 0
-202 -3202 0
-201 -4001 0
-202 -4002 0
-201 -4901 0
-202 -4902 0
-201 -5201 0
-202 -5202 0
-201 -5601 0
-202 -5602 0
-201 -6201 0
-202 -6202 0
-201 -6501 0
-202 -6502 0
-201 -6801 0
-202 -6802 0
-301 -801 0
-302 -802 0
-301 -901 0
-302 -902 0
-301 -2301 0
-302 -2302 0
-301 -2401 0
-302 -2402 0
-301 -4101 0
-302 -4102 0
-301 -4701 0
-302 -4702 0
-301 -4801 0
-302 -4802 0
-301 -7801 0
-302 -7802 0
-401 -1001 0
-402 -1002 0
-401 -1101 0
-402 -1102 0
-401 -2301 0
-402 -2302 0
-401 -2801 0
-402 -2802 0
-401 -3601 0
-402 -3602 0
-401 -4101 0
-402 -4102 0
-401 -5501 0
-402 -5502 0
-401 -7301 0
-402 -7302 0
-401 -7601 0
-402 -7602 0
-401 -8001 0
-402 -8002 0
-501 -601 0
-502 -602 0
-501 -1101 0
-502 -1102 0
-501 -1901 0
-502 -1902 0
-501 -2201 0
-502 -2202 0
-501 -3601 0
-502 -3602 0
-501 -7301 0
-502 -7302 0
-501 -7801 0
-502 -7802 0
-601 -4701 0
-602 -4702 0
-701 -3201 0
-702 -3202 0
-701 -5301 0
-702 -5302 0
-701 -5401 0
-702 -5402 0
-701 -6601 0
-702 -6602 0
-701 -7301 0
-702 -7302 0
-701 -7701 0
-702 -7702 0
-801 -1101 0
-802 -1102 0
-801 -3301 0
-802 -3302 0
-801 -3601 0
-802 -3602 0
-801 -3701 0
-802 -3702 0
-801 -4901 0
-802 -4902 0
-801 -5801 0
-802 -5802 0
-801 -6601 0
-802 -6602 0
-801 -6701 0
-802 -6702 0
-901 -2701 0
-902 -2702 0
-901 -3101 0
-902 -3102 0
-901 -3301 0
-902 -3302 0
-901 -5701 0
-902 -5702 0
-901 -7301 0
-902 -7302 0
-901 -7701 0
-902 -7702 0
-1001 -1101 0
-1002 -1102 0
-1001 -2901 0
-1002 -2902 0
-1001 -3201 0
-1002 -3202 0
-1001 -5001 0
-1002 -5002 0
-1001 -5601 0
-1002 -5602 0
-1001 -6901 0
-1002 -6902 0
-1001 -8001 0
-1002 -8002 0
-1101 -2601 0
-1102 -2602 0
-1101 -2901 0
-1102 -2902 0
-1101 -3101 0
-1102 -3102 0
-1101 -5701 0
-1102 -5702 0
-1101 -7301 0
-1102 -7302 0
-1201 -1301 0
-1202 -1302 0
-1201 -1701 0
-1202 -1702 0
-1201 -3001 0
-1202 -3002 0
-1201 -3601 0
-1202 -3602 0
-1201 -4701 0
-1202 -4702 0
-1201 -5201 0
-1202 -5202 0
-1201 -7101 0
-1202 -7102 0
-1301 -2001 0
-1302 -2002 0
-1301 -2901 0
-1302 -2902 0
-1301 -3101 0
-1302 -3102 0
-1301 -3601 0
-1302 -3602 0
-1301 -5101 0
-1302 -5102 0
-1301 -7001 0
-1302 -7002 0
-1301 -7801 0
-1302 -7802 0
-1401 -2101 0
-1402 -2102 0
-1401 -6001 0
-1402 -6002 0
-1401 -6301 0
-1402 -6302 0
-1401 -7401 0
-1402 -7402 0
-1501 -2901 0
-1502 -2902 0
-1501 -4901 0
-1502 -4902 0
-1501 -5601 0
-1502 -5602 0
-1501 -7201 0
-1502 -7202 0
-1601 -1801 0
-1602 -1802 0
-1601 -2901 0
-1602 -2902 0
-1601 -3201 0
-1602 -3202 0
-1601 -3901 0
-1602 -3902 0
-1601 -4201 0
-1602 -4202 0
-1601 -4901 0
-1602 -4902 0
-1601 -5601 0
-1602 -5602 0
-1601 -6701 0
-1602 -6702 0
-1701 -1801 0
-1702 -1802 0
-1701 -2201 0
-1702 -2202 0
-1701 -2501 0
-1702 -2502 0
-1701 -2601 0
-1702 -2602 0
-1701 -3701 0
-1702 -3702 0
-1701 -4001 0
-1702 -4002 0
-1701 -4401 0
-1702 -4402 0
-1701 -4801 0
-1702 -4802 0
-1701 -6301 0
-1702 -6302 0
-1701 -6601 0
-1702 -6602 0
-1701 -6801 0
-1702 -6802 0
-1701 -7701 0
-1702 -7702 0
-1801 -2201 0
-1802 -2202 0
-1801 -2301 0
-1802 -2302 0
-1801 -2901 0
-1802 -2902 0
-1801 -3201 0
-1802 -3202 0
-1801 -5101 0
-1802 -5102 0
-1801 -6401 0
-1802 -6402 0
-1801 -7001 0
-1802 -7002 0
-1801 -7401 0
-1802 -7402 0
-1901 -5801 0
-1902 -5802 0
-1901 -6701 0
-1902 -6702 0
-1901 -7701 0
-1902 -7702 0
-2001 -2501 0
-2002 -2502 0
-2001 -3401 0
-2002 -3402 0
-2001 -3501 0
-2002 -3502 0
-2001 -4601 0
-2002 -4602 0
-2001 -6501 0
-2002 -6502 0
-2001 -6601 0
-2002 -6602 0
-2101 -3201 0
-2102 -3202 0
-2101 -5301 0
-2102 -5302 0
-2201 -2401 0
-2202 -2402 0
-2201 -2801 0
-2202 -2802 0
-2201 -4001 0
-2202 -4002 0
-2201 -4301 0
-2202 -4302 0
-2201 -6401 0
-2202 -6402 0
-2201 -6501 0
-2202 -6502 0
-2201 -7901 0
-2202 -7902 0
-2301 -2501 0
-2302 -2502 0
-2301 -2701 0
-2302 -2702 0
-2301 -3001 0
-2302 -3002 0
-2301 -3401 0
-2302 -3402 0
-2301 -4101 0
-2302 -4102 0
-2301 -4901 0
-2302 -4902 0
-2301 -6001 0
-2302 -6002 0
-2301 -7201 0
-2302 -7202 0
-2301 -7701 0
-2302 -7702 0
-2301 -7901 0
-2302 -7902 0
-2401 -3001 0
-2402 -3002 0
-2401 -3801 0
-2402 -3802 0
-2401 -4401 0
-2402 -4402 0
-2401 -4701 0
-2402 -4702 0
-2401 -7301 0
-2402 -7302 0
-2401 -7401 0
-2402 -7402 0
-2501 -3201 0
-2502 -3202 0
-2501 -5401 0
-2502 -5402 0
-2501 -6801 0
-2502 -6802 0
-2601 -3901 0
-2602 -3902 0
-2601 -5501 0
-2602 -5502 0
-2601 -5801 0
-2602 -5802 0
-2601 -6101 0
-2602 -6102 0
-2601 -6301 0
-2602 -6302 0
-2601 -6901 0
-2602 -6902 0
-2701 -4001 0
-2702 -4002 0
-2701 -4501 0
-2702 -4502 0
-2701 -5001 0
-2702 -5002 0
-2701 -5601 0
-2702 -5602 0
-2701 -6001 0
-2702 -6002 0
-2701 -7001 0
-2702 -7002 0
-2701 -7101 0
-2702 -7102 0
-2801 -4301 0
-2802 -4302 0
-2801 -4401 0
-2802 -4402 0
-2801 -5101 0
-2802 -5102 0
-2801 -6101 0
-2802 -6102 0
-2801 -6201 0
-2802 -6202 0
-2801 -6601 0
-2802 -6602 0
-2801 -6801 0
-2802 -6802 0
-2801 -7901 0
-2802 -7902 0
-2901 -3001 0
-2902 -3002 0
-2901 -4001 0
-2902 -4002 0
-2901 -4401 0
-2902 -4402 0
-2901 -4701 0
-2902 -4702 0
-2901 -5301 0
-2902 -5302 0
-2901 -6001 0
-2902 -6002 0
-2901 -6501 0
-2902 -6502 0
-3001 -3501 0
-3002 -3502 0
-3001 -3701 0
-3002 -3702 0
-3001 -4701 0
-3002 -4702 0
-3001 -5201 0
-3002 -5202 0
-3001 -5401 0
-3002 -5402 0
-3001 -6101 0
-3002 -6102 0
-3001 -7601 0
-3002 -7602 0
-3101 -3201 0
-3102 -3202 0
-3101 -3601 0
-3102 -3602 0
-3101 -4801 0
-3102 -4802 0
-3101 -5101 0
-3102 -5102 0
-3201 -5001 0
-3202 -5002 0
-3201 -5401 0
-3202 -5402 0
-3201 -5501 0
-3202 -5502 0
-3201 -7301 0
-3202 -7302 0
-3201 -7601 0
-3202 -7602 0
-3201 -7801 0
-3202 -7802 0
-3301 -5201 0
-3302 -5202 0
-3301 -5901 0
-3302 -5902 0
-3301 -6601 0
-3302 -6602 0
-3301 -7401 0
-3302 -7402 0
-3401 -4201 0
-3402 -4202 0
-3401 -8001 0
-3402 -8002 0
-3501 -4001 0
-3502 -4002 0
-3501 -4601 0
-3502 -4602 0
-3501 -5301 0
-3502 -5302 0
-3501 -6901 0
-3502 -6902 0
-3501 -7901 0
-3502 -7902 0
-3601 -5201 0
-3602 -5202 0
-3601 -6801 0
-3602 -6802 0
-3601 -7301 0
-3602 -7302 0
-3701 -5101 0
-3702 -5102 0
-3701 -6001 0
-3702 -6002 0
-3701 -6401 0
-3702 -6402 0
-3701 -7301 0
-3702 -7302 0
-3701 -7401 0
-3702 -7402 0
-3801 -4101 0
-3802 -4102 0
-3801 -4401 0
-3802 -4402 0
-3801 -5001 0
-3802 -5002 0
-3801 -6201 0
-3802 -6202 0
-3901 -4401 0
-3902 -4402 0
-3901 -5401 0
-3902 -5402 0
-3901 -5501 0
-3902 -5502 0
-3901 -5901 0
-3902 -5902 0
-3901 -6101 0
-3902 -6102 0
-3901 -6301 0
-3902 -6302 0
-3901 -7301 0
-3902 -7302 0
-4001 -6501 0
-4002 -6502 0
-4001 -7501 0
-4002 -7502 0
-4101 -4901 0
-4102 -4902 0
-4101 -6901 0
-4102 -6902 0
-4101 -7301 0
-4102 -7302 0
-4101 -7401 0
-4102 -7402 0
-4201 -4801 0
-4202 -4802 0
-4201 -5701 0
-4202 -5702 0
-4201 -7501 0
-4202 -7502 0
-4301 -4801 0
-4302 -4802 0
-4301 -7501 0
-4302 -7502 0
-4401 -4501 0
-4402 -4502 0
-4401 -5901 0
-4402 -5902 0
-4401 -7601 0
-4402 -7602 0
-4401 -7801 0
-4402 -7802 0
-4601 -8001 0
-4602 -8002 0
-4701 -5601 0
-4702 -5602 0
-4701 -7501 0
-4702 -7502 0
-4901 -5301 0
-4902 -5302 0
-4901 -7501 0
-4902 -7502 0
-4901 -7701 0
-4902 -7702 0
-5001 -5501 0
-5002 -5502 0
-5001 -7701 0
-5002 -7702 0
-5001 -8001 0
-5002 -8002 0
-5101 -5901 0
-5102 -5902 0
-5201 -5901 0
-5202 -5902 0
-5301 -6501 0
-5302 -6502 0
-5301 -7201 0
-5302 -7202 0
-5301 -7401 0
-5302 -7402 0
-5301 -7801 0
-5302 -7802 0
-5401 -6601 0
-5402 -6602 0
-5401 -7301 0
-5402 -7302 0
-5401 -7401 0
-5402 -7402 0
-5501 -5901 0
-5502 -5902 0
-5501 -6401 0
-5502 -6402 0
-5501 -7401 0
-5502 -7402 0
-5601 -6001 0
-5602 -6002 0
-5601 -6401 0
-5602 -6402 0
-5601 -6601 0
-5602 -6602 0
-5601 -6701 0
-5602 -6702 0
-5601 -7801 0
-5602 -7802 0
-5701 -5801 0
-5702 -5802 0
-5801 -6101 0
-5802 -6102 0
-5801 -6601 0
-5802 -6602 0
-5801 -7901 0
-5802 -7902 0
-5901 -6601 0
-5902 -6602 0
-6101 -6401 0
-6102 -6402 0
-6101 -6701 0
-6102 -6702 0
-6101 -7601 0
-6102 -7602 0
-6101 -8001 0
-6102 -8002 0
-6201 -7201 0
-6202 -7202 0
-6301 -7301 0
-6302 -7302 0
-6301 -7701 0
-6302 -7702 0
-6401 -6701 0
-6402 -6702 0
-6401 -7001 0
-6402 -7002 0
-6401 -7101 0
-6402 -7102 0
-6401 -7301 0
-6402 -7302 0
-6401 -7701 0
-6402 -7702 0
-6501 -7101 0
-6502 -7102 0
-6501 -7801 0
-6502 -7802 0
-6601 -7401 0
-6602 -7402 0
-6601 -7701 0
-6602 -7702 0
-6901 -7001 0
-6902 -7002 0
-6901 -7701 0
-6902 -7702 0
-7001 -7201 0
-7002 -7202 0
-7201 -7901 0
-7202 -7902 0
-7301 -7401 0
-7302 -7402 0
-7301 -7801 0
-7302 -7802 0
-7701 -8001 0
-7702 -8002 0
